;; sequence(s): A267460
;; terms: 0 2 4 6 6 8 8 10 10 12 12 14 14 16 16 18 18 20 20 22
;; small program: ((2 mod (1 + x)) + (x mod 2)) + x
;; fast program: ((x mod 2) + loop(0, 2 - x, 2)) + x
(set-logic UFNIA)
(define-fun modf ((a Int) (b Int)) Int (ite (< 0 b) (mod a b) (- (mod (- a) (- b)))))
(declare-fun small (Int) Int)
(declare-fun f0 () Int)
(declare-fun g0 (Int) Int)
(declare-fun h0 () Int)
(declare-fun u0 (Int Int) Int)
(declare-fun v0 (Int) Int)
(declare-fun fast (Int) Int)
(assert (forall ((x Int)) (= (small x) (+ (+ (modf 2 (+ 1 x)) (modf x 2)) x))))
(assert (= f0 0))
(assert (forall ((x Int)) (= (g0 x) (- 2 x))))
(assert (= h0 2))
(assert (forall ((x Int) (y Int)) (= (u0 x y) (ite (<= x 0) y f0))))
(assert (forall ((x Int)) (= (v0 x) (u0 (g0 x) h0))))
(assert (forall ((x Int)) (= (fast x) (+ (+ (modf x 2) (v0 x)) x))))
(assert (exists ((c Int)) (and (>= c 0) (not (= (small c) (fast c))))))
(check-sat)
